(set-info :source |printed by MathSAT|)
(declare-fun |.x{836}| () Int)
(declare-fun |.x{880}| () Int)
(declare-fun |.x{837}| () (Array Int Int))
(declare-fun |.x{881}| () (Array Int Int))
(declare-fun |.x{838}| () (Array Int Int))
(declare-fun |.x{882}| () (Array Int Int))
(declare-fun |.x{839}| () (Array Int (Array Int Int)))
(declare-fun |.x{883}| () (Array Int (Array Int Int)))
(declare-fun |.x{840}| () (Array Int (Array Int Int)))
(declare-fun |.x{884}| () (Array Int (Array Int Int)))
(declare-fun |.x{841}| () Int)
(declare-fun |.x{885}| () Int)
(declare-fun |.x{842}| () Int)
(declare-fun |.x{886}| () Int)
(declare-fun |.x{843}| () (Array Int Int))
(declare-fun |.x{887}| () (Array Int Int))
(declare-fun |.x{844}| () (Array Int Int))
(declare-fun |.x{888}| () (Array Int Int))
(declare-fun |.x{845}| () Int)
(declare-fun |.x{889}| () Int)
(declare-fun |.x{846}| () Int)
(declare-fun |.x{890}| () Int)
(declare-fun |.x{847}| () Int)
(declare-fun |.x{891}| () Int)
(declare-fun |.x{848}| () Int)
(declare-fun |.x{892}| () Int)
(declare-fun |.x{849}| () Int)
(declare-fun |.x{893}| () Int)
(declare-fun |.x{850}| () Int)
(declare-fun |.x{894}| () Int)
(declare-fun |.x{851}| () Int)
(declare-fun |.x{895}| () Int)
(declare-fun |.x{852}| () Int)
(declare-fun |.x{896}| () Int)
(declare-fun |.x{853}| () Int)
(declare-fun |.x{897}| () Int)
(declare-fun |.x{854}| () Int)
(declare-fun |.x{898}| () Int)
(declare-fun |.x{855}| () Int)
(declare-fun |.x{899}| () Int)
(declare-fun |.x{856}| () Int)
(declare-fun |.x{900}| () Int)
(declare-fun |.x{879}| () Bool)
(declare-fun |.x{857}| () Bool)
(declare-fun |.loc{5}| () Bool)
(declare-fun |.loc{9}| () Bool)
(declare-fun |.loc{6}| () Bool)
(declare-fun |.loc{10}| () Bool)
(declare-fun |.loc{7}| () Bool)
(declare-fun |.loc{11}| () Bool)
(declare-fun |.loc{8}| () Bool)
(declare-fun |.loc{12}| () Bool)
(declare-fun |.x{87}| () (Array Int Int))
(define-fun .def_54 () Bool (! |.loc{6}| :next |.loc{10}|))
(define-fun .def_106 () Bool (not .def_54))
(define-fun .def_52 () Bool (! |.loc{5}| :next |.loc{9}|))
(define-fun .def_83 () Bool (not .def_52))
(define-fun .def_412 () Bool (and .def_83 .def_106))
(define-fun .def_56 () Bool (! |.loc{7}| :next |.loc{11}|))
(define-fun .def_100 () Bool (not .def_56))
(define-fun .def_413 () Bool (and .def_100 .def_412))
(define-fun .def_58 () Bool (! |.loc{8}| :next |.loc{12}|))
(define-fun .def_387 () Bool (not .def_58))
(define-fun .def_414 () Bool (and .def_387 .def_413))
(define-fun .def_28 () Int (! |.x{846}| :next |.x{890}|))
(define-fun .def_26 () Int (! |.x{845}| :next |.x{889}|))
(define-fun .def_406 () Bool (= .def_26 .def_28))
(define-fun .def_16 () (Array Int (Array Int Int)) (! |.x{840}| :next |.x{884}|))
(define-fun .def_14 () (Array Int (Array Int Int)) (! |.x{839}| :next |.x{883}|))
(define-fun .def_405 () Bool (= .def_14 .def_16))
(define-fun .def_407 () Bool (and .def_405 .def_406))
(define-fun .def_50 () Bool (! |.x{879}| :next |.x{857}|))
(define-fun .def_404 () Bool (not .def_50))
(define-fun .def_408 () Bool (and .def_404 .def_407))
(define-fun .def_20 () Int (! |.x{842}| :next |.x{886}|))
(define-fun .def_18 () Int (! |.x{841}| :next |.x{885}|))
(define-fun .def_403 () Bool (= .def_18 .def_20))
(define-fun .def_409 () Bool (and .def_403 .def_408))
(define-fun .def_24 () (Array Int Int) (! |.x{844}| :next |.x{888}|))
(define-fun .def_22 () (Array Int Int) (! |.x{843}| :next |.x{887}|))
(define-fun .def_402 () Bool (= .def_22 .def_24))
(define-fun .def_410 () Bool (and .def_402 .def_409))
(define-fun .def_12 () (Array Int Int) (! |.x{838}| :next |.x{882}|))
(define-fun .def_10 () (Array Int Int) (! |.x{837}| :next |.x{881}|))
(define-fun .def_401 () Bool (= .def_10 .def_12))
(define-fun .def_411 () Bool (and .def_401 .def_410))
(define-fun .def_415 () Bool (! (and .def_411 .def_414) :init true))
(define-fun .def_398 () Bool (= .def_28 |.x{890}|))
(define-fun .def_396 () Bool (= .def_24 |.x{888}|))
(define-fun .def_394 () Bool (= .def_20 |.x{886}|))
(define-fun .def_392 () Bool (= .def_16 |.x{884}|))
(define-fun .def_390 () Bool (= .def_12 |.x{882}|))
(define-fun .def_8 () Int (! |.x{836}| :next |.x{880}|))
(define-fun .def_388 () Bool (= .def_8 |.x{880}|))
(define-fun .def_389 () Bool (and .def_387 .def_388))
(define-fun .def_391 () Bool (and .def_389 .def_390))
(define-fun .def_393 () Bool (and .def_391 .def_392))
(define-fun .def_395 () Bool (and .def_393 .def_394))
(define-fun .def_397 () Bool (and .def_395 .def_396))
(define-fun .def_399 () Bool (and .def_397 .def_398))
(define-fun .def_359 () Bool (and |.x{857}| .def_83))
(define-fun .def_129 () Bool (= .def_10 |.x{881}|))
(define-fun .def_360 () Bool (and .def_129 .def_359))
(define-fun .def_30 () Int (! |.x{847}| :next |.x{891}|))
(define-fun .def_110 () Bool (= .def_30 |.x{891}|))
(define-fun .def_361 () Bool (and .def_110 .def_360))
(define-fun .def_32 () Int (! |.x{848}| :next |.x{892}|))
(define-fun .def_136 () Bool (= .def_32 |.x{892}|))
(define-fun .def_362 () Bool (and .def_136 .def_361))
(define-fun .def_34 () Int (! |.x{849}| :next |.x{893}|))
(define-fun .def_138 () Bool (= .def_34 |.x{893}|))
(define-fun .def_363 () Bool (and .def_138 .def_362))
(define-fun .def_38 () Int (! |.x{851}| :next |.x{895}|))
(define-fun .def_141 () Bool (= .def_38 |.x{895}|))
(define-fun .def_364 () Bool (and .def_141 .def_363))
(define-fun .def_353 () (Array Int Int) (store .def_10 .def_34 0))
(define-fun .def_354 () Bool (= |.x{881}| .def_353))
(define-fun .def_352 () Bool (= |.x{895}| 0))
(define-fun .def_355 () Bool (and .def_352 .def_354))
(define-fun .def_356 () Bool (or .def_50 .def_355))
(define-fun .def_349 () Bool (= |.x{891}| |.x{895}|))
(define-fun .def_350 () Bool (or |.x{857}| .def_349))
(define-fun .def_108 () Bool (= .def_50 |.x{857}|))
(define-fun .def_351 () Bool (and .def_108 .def_350))
(define-fun .def_357 () Bool (and .def_351 .def_356))
(define-fun .def_358 () Bool (and .def_52 .def_357))
(define-fun .def_365 () Bool (or .def_358 .def_364))
(define-fun .def_96 () Bool (not |.loc{10}|))
(define-fun .def_347 () Bool (and |.loc{12}| .def_96))
(define-fun .def_98 () Bool (not |.loc{11}|))
(define-fun .def_348 () Bool (and .def_98 .def_347))
(define-fun .def_366 () Bool (and .def_348 .def_365))
(define-fun .def_367 () Bool (and .def_54 .def_366))
(define-fun .def_36 () Int (! |.x{850}| :next |.x{894}|))
(define-fun .def_160 () Bool (= .def_36 0))
(define-fun .def_339 () Bool (or .def_50 .def_160))
(define-fun .def_335 () Bool (and |.loc{10}| |.loc{11}|))
(define-fun .def_336 () Bool (and .def_129 .def_335))
(define-fun .def_102 () Bool (not |.loc{12}|))
(define-fun .def_337 () Bool (and .def_102 .def_336))
(define-fun .def_338 () Bool (and .def_106 .def_337))
(define-fun .def_340 () Bool (and .def_338 .def_339))
(define-fun .def_341 () Bool (and .def_108 .def_340))
(define-fun .def_342 () Bool (and .def_110 .def_341))
(define-fun .def_343 () Bool (and .def_136 .def_342))
(define-fun .def_344 () Bool (and .def_138 .def_343))
(define-fun .def_345 () Bool (and .def_141 .def_344))
(define-fun .def_346 () Bool (and .def_52 .def_345))
(define-fun .def_368 () Bool (or .def_346 .def_367))
(define-fun .def_211 () Bool (not |.loc{9}|))
(define-fun .def_46 () Int (! |.x{855}| :next |.x{899}|))
(define-fun .def_86 () Bool (= .def_46 |.x{899}|))
(define-fun .def_334 () Bool (and .def_86 .def_211))
(define-fun .def_369 () Bool (and .def_334 .def_368))
(define-fun .def_112 () Bool (= .def_36 |.x{894}|))
(define-fun .def_370 () Bool (and .def_112 .def_369))
(define-fun .def_40 () Int (! |.x{852}| :next |.x{896}|))
(define-fun .def_145 () Bool (= .def_40 |.x{896}|))
(define-fun .def_371 () Bool (and .def_145 .def_370))
(define-fun .def_48 () Int (! |.x{856}| :next |.x{900}|))
(define-fun .def_240 () Bool (<= 100000 .def_48))
(define-fun .def_323 () Bool (not .def_240))
(define-fun .def_322 () Bool (= |.x{894}| |.x{899}|))
(define-fun .def_324 () Bool (and .def_322 .def_323))
(define-fun .def_319 () Bool (= |.x{896}| 42))
(define-fun .def_320 () Int (ite .def_319 1 0))
(define-fun .def_321 () Bool (= |.x{899}| .def_320))
(define-fun .def_325 () Bool (and .def_321 .def_324))
(define-fun .def_315 () Int (* 4 .def_48))
(define-fun .def_316 () Int (+ .def_32 .def_315))
(define-fun .def_177 () (Array Int Int) (select .def_14 .def_34))
(define-fun .def_317 () Int (select .def_177 .def_316))
(define-fun .def_318 () Bool (= |.x{896}| .def_317))
(define-fun .def_326 () Bool (and .def_318 .def_325))
(define-fun .def_327 () Bool (or .def_50 .def_326))
(define-fun .def_309 () Bool (and |.loc{9}| .def_83))
(define-fun .def_310 () Bool (and |.loc{11}| .def_309))
(define-fun .def_311 () Bool (and .def_96 .def_310))
(define-fun .def_312 () Bool (and .def_129 .def_311))
(define-fun .def_313 () Bool (and .def_102 .def_312))
(define-fun .def_314 () Bool (and .def_106 .def_313))
(define-fun .def_328 () Bool (and .def_314 .def_327))
(define-fun .def_329 () Bool (and .def_108 .def_328))
(define-fun .def_330 () Bool (and .def_110 .def_329))
(define-fun .def_331 () Bool (and .def_136 .def_330))
(define-fun .def_332 () Bool (and .def_138 .def_331))
(define-fun .def_333 () Bool (and .def_141 .def_332))
(define-fun .def_372 () Bool (or .def_333 .def_371))
(define-fun .def_126 () Bool (= .def_48 |.x{900}|))
(define-fun .def_44 () Int (! |.x{854}| :next |.x{898}|))
(define-fun .def_121 () Bool (= .def_44 |.x{898}|))
(define-fun .def_308 () Bool (and .def_121 .def_126))
(define-fun .def_373 () Bool (and .def_308 .def_372))
(define-fun .def_374 () Bool (and .def_56 .def_373))
(define-fun .def_295 () Int (* (- 1) |.x{900}|))
(define-fun .def_296 () Int (+ .def_48 .def_295))
(define-fun .def_297 () Bool (= .def_296 (- 1)))
(define-fun .def_298 () Bool (or |.x{857}| .def_297))
(define-fun .def_289 () Bool (and |.loc{11}| .def_86))
(define-fun .def_290 () Bool (and .def_211 .def_289))
(define-fun .def_291 () Bool (and .def_96 .def_290))
(define-fun .def_292 () Bool (and .def_100 .def_291))
(define-fun .def_293 () Bool (and .def_129 .def_292))
(define-fun .def_294 () Bool (and .def_102 .def_293))
(define-fun .def_299 () Bool (and .def_294 .def_298))
(define-fun .def_300 () Bool (and .def_108 .def_299))
(define-fun .def_301 () Bool (and .def_110 .def_300))
(define-fun .def_302 () Bool (and .def_136 .def_301))
(define-fun .def_303 () Bool (and .def_138 .def_302))
(define-fun .def_304 () Bool (and .def_112 .def_303))
(define-fun .def_305 () Bool (and .def_141 .def_304))
(define-fun .def_306 () Bool (and .def_52 .def_305))
(define-fun .def_307 () Bool (and .def_54 .def_306))
(define-fun .def_375 () Bool (or .def_307 .def_374))
(define-fun .def_275 () Bool (= |.x{900}| 0))
(define-fun .def_276 () Bool (or .def_50 .def_275))
(define-fun .def_242 () Bool (and .def_83 .def_121))
(define-fun .def_271 () Bool (and .def_86 .def_242))
(define-fun .def_272 () Bool (and |.loc{11}| .def_271))
(define-fun .def_273 () Bool (and .def_211 .def_272))
(define-fun .def_274 () Bool (and .def_96 .def_273))
(define-fun .def_277 () Bool (and .def_274 .def_276))
(define-fun .def_278 () Bool (and .def_100 .def_277))
(define-fun .def_279 () Bool (and .def_129 .def_278))
(define-fun .def_280 () Bool (and .def_102 .def_279))
(define-fun .def_281 () Bool (and .def_108 .def_280))
(define-fun .def_282 () Bool (and .def_110 .def_281))
(define-fun .def_283 () Bool (and .def_136 .def_282))
(define-fun .def_284 () Bool (and .def_138 .def_283))
(define-fun .def_285 () Bool (and .def_112 .def_284))
(define-fun .def_286 () Bool (and .def_141 .def_285))
(define-fun .def_287 () Bool (and .def_54 .def_286))
(define-fun .def_288 () Bool (and .def_145 .def_287))
(define-fun .def_376 () Bool (or .def_288 .def_375))
(define-fun .def_243 () Bool (and |.loc{9}| .def_242))
(define-fun .def_244 () Bool (and .def_86 .def_243))
(define-fun .def_245 () Bool (and |.loc{10}| .def_244))
(define-fun .def_246 () Bool (and |.loc{11}| .def_245))
(define-fun .def_247 () Bool (and .def_126 .def_246))
(define-fun .def_248 () Bool (and .def_129 .def_247))
(define-fun .def_260 () Bool (and .def_102 .def_248))
(define-fun .def_261 () Bool (and .def_106 .def_260))
(define-fun .def_262 () Bool (and .def_50 .def_261))
(define-fun .def_263 () Bool (and .def_108 .def_262))
(define-fun .def_264 () Bool (and .def_110 .def_263))
(define-fun .def_265 () Bool (and .def_136 .def_264))
(define-fun .def_266 () Bool (and .def_138 .def_265))
(define-fun .def_267 () Bool (and .def_112 .def_266))
(define-fun .def_268 () Bool (and .def_141 .def_267))
(define-fun .def_269 () Bool (and .def_56 .def_268))
(define-fun .def_270 () Bool (and .def_145 .def_269))
(define-fun .def_377 () Bool (or .def_270 .def_376))
(define-fun .def_241 () Bool (or .def_50 .def_240))
(define-fun .def_249 () Bool (and .def_241 .def_248))
(define-fun .def_250 () Bool (and .def_102 .def_249))
(define-fun .def_251 () Bool (and .def_106 .def_250))
(define-fun .def_252 () Bool (and .def_108 .def_251))
(define-fun .def_253 () Bool (and .def_110 .def_252))
(define-fun .def_254 () Bool (and .def_136 .def_253))
(define-fun .def_255 () Bool (and .def_138 .def_254))
(define-fun .def_256 () Bool (and .def_112 .def_255))
(define-fun .def_257 () Bool (and .def_141 .def_256))
(define-fun .def_258 () Bool (and .def_56 .def_257))
(define-fun .def_259 () Bool (and .def_145 .def_258))
(define-fun .def_378 () Bool (or .def_259 .def_377))
(define-fun .def_208 () Bool (and .def_86 .def_121))
(define-fun .def_209 () Bool (and |.loc{10}| .def_208))
(define-fun .def_210 () Bool (and .def_126 .def_209))
(define-fun .def_212 () Bool (and .def_210 .def_211))
(define-fun .def_213 () Bool (and .def_98 .def_212))
(define-fun .def_227 () Bool (and .def_100 .def_213))
(define-fun .def_228 () Bool (and .def_129 .def_227))
(define-fun .def_229 () Bool (and .def_102 .def_228))
(define-fun .def_230 () Bool (and .def_106 .def_229))
(define-fun .def_231 () Bool (and .def_50 .def_230))
(define-fun .def_232 () Bool (and .def_108 .def_231))
(define-fun .def_233 () Bool (and .def_110 .def_232))
(define-fun .def_234 () Bool (and .def_136 .def_233))
(define-fun .def_235 () Bool (and .def_138 .def_234))
(define-fun .def_236 () Bool (and .def_112 .def_235))
(define-fun .def_237 () Bool (and .def_141 .def_236))
(define-fun .def_238 () Bool (and .def_52 .def_237))
(define-fun .def_239 () Bool (and .def_145 .def_238))
(define-fun .def_379 () Bool (or .def_239 .def_378))
(define-fun .def_42 () Int (! |.x{853}| :next |.x{897}|))
(define-fun .def_171 () Bool (<= 100000 .def_42))
(define-fun .def_207 () Bool (or .def_50 .def_171))
(define-fun .def_214 () Bool (and .def_207 .def_213))
(define-fun .def_215 () Bool (and .def_100 .def_214))
(define-fun .def_216 () Bool (and .def_129 .def_215))
(define-fun .def_217 () Bool (and .def_102 .def_216))
(define-fun .def_218 () Bool (and .def_106 .def_217))
(define-fun .def_219 () Bool (and .def_108 .def_218))
(define-fun .def_220 () Bool (and .def_110 .def_219))
(define-fun .def_221 () Bool (and .def_136 .def_220))
(define-fun .def_222 () Bool (and .def_138 .def_221))
(define-fun .def_223 () Bool (and .def_112 .def_222))
(define-fun .def_224 () Bool (and .def_141 .def_223))
(define-fun .def_225 () Bool (and .def_52 .def_224))
(define-fun .def_226 () Bool (and .def_145 .def_225))
(define-fun .def_380 () Bool (or .def_226 .def_379))
(define-fun .def_119 () Bool (= .def_42 |.x{897}|))
(define-fun .def_104 () Bool (= .def_14 |.x{883}|))
(define-fun .def_206 () Bool (and .def_104 .def_119))
(define-fun .def_381 () Bool (and .def_206 .def_380))
(define-fun .def_182 () Int (* (- 1) |.x{897}|))
(define-fun .def_183 () Int (+ .def_42 .def_182))
(define-fun .def_184 () Bool (= .def_183 (- 1)))
(define-fun .def_175 () Int (* 4 .def_42))
(define-fun .def_176 () Int (+ .def_32 .def_175))
(define-fun .def_178 () (Array Int Int) (store .def_177 .def_176 42))
(define-fun .def_179 () (Array Int (Array Int Int)) (store .def_14 .def_34 .def_178))
(define-fun .def_180 () Bool (= |.x{883}| .def_179))
(define-fun .def_185 () Bool (and .def_180 .def_184))
(define-fun .def_172 () Bool (not .def_171))
(define-fun .def_186 () Bool (and .def_172 .def_185))
(define-fun .def_187 () Bool (or .def_50 .def_186))
(define-fun .def_188 () Bool (and .def_121 .def_187))
(define-fun .def_189 () Bool (and |.loc{9}| .def_188))
(define-fun .def_190 () Bool (and .def_86 .def_189))
(define-fun .def_191 () Bool (and .def_126 .def_190))
(define-fun .def_192 () Bool (and .def_96 .def_191))
(define-fun .def_193 () Bool (and .def_98 .def_192))
(define-fun .def_194 () Bool (and .def_100 .def_193))
(define-fun .def_195 () Bool (and .def_129 .def_194))
(define-fun .def_196 () Bool (and .def_102 .def_195))
(define-fun .def_197 () Bool (and .def_106 .def_196))
(define-fun .def_198 () Bool (and .def_108 .def_197))
(define-fun .def_199 () Bool (and .def_110 .def_198))
(define-fun .def_200 () Bool (and .def_136 .def_199))
(define-fun .def_201 () Bool (and .def_138 .def_200))
(define-fun .def_202 () Bool (and .def_112 .def_201))
(define-fun .def_203 () Bool (and .def_141 .def_202))
(define-fun .def_204 () Bool (and .def_52 .def_203))
(define-fun .def_205 () Bool (and .def_145 .def_204))
(define-fun .def_382 () Bool (or .def_205 .def_381))
(define-fun .def_161 () Bool (not .def_160))
(define-fun .def_162 () Bool (or .def_50 .def_161))
(define-fun .def_147 () Bool (and .def_119 .def_121))
(define-fun .def_148 () Bool (and |.loc{9}| .def_147))
(define-fun .def_149 () Bool (and .def_86 .def_148))
(define-fun .def_150 () Bool (and |.loc{10}| .def_149))
(define-fun .def_151 () Bool (and .def_126 .def_150))
(define-fun .def_152 () Bool (and .def_98 .def_151))
(define-fun .def_153 () Bool (and .def_129 .def_152))
(define-fun .def_154 () Bool (and .def_102 .def_153))
(define-fun .def_155 () Bool (and .def_104 .def_154))
(define-fun .def_156 () Bool (and .def_106 .def_155))
(define-fun .def_157 () Bool (and .def_108 .def_156))
(define-fun .def_158 () Bool (and .def_110 .def_157))
(define-fun .def_159 () Bool (and .def_136 .def_158))
(define-fun .def_163 () Bool (and .def_159 .def_162))
(define-fun .def_164 () Bool (and .def_138 .def_163))
(define-fun .def_165 () Bool (and .def_112 .def_164))
(define-fun .def_166 () Bool (and .def_141 .def_165))
(define-fun .def_167 () Bool (and .def_52 .def_166))
(define-fun .def_168 () Bool (and .def_56 .def_167))
(define-fun .def_169 () Bool (and .def_145 .def_168))
(define-fun .def_383 () Bool (or .def_169 .def_382))
(define-fun .def_120 () Bool (and .def_83 .def_119))
(define-fun .def_122 () Bool (and .def_120 .def_121))
(define-fun .def_123 () Bool (and |.loc{9}| .def_122))
(define-fun .def_124 () Bool (and .def_86 .def_123))
(define-fun .def_125 () Bool (and |.loc{10}| .def_124))
(define-fun .def_127 () Bool (and .def_125 .def_126))
(define-fun .def_128 () Bool (and .def_98 .def_127))
(define-fun .def_130 () Bool (and .def_128 .def_129))
(define-fun .def_131 () Bool (and .def_102 .def_130))
(define-fun .def_132 () Bool (and .def_104 .def_131))
(define-fun .def_133 () Bool (and .def_50 .def_132))
(define-fun .def_134 () Bool (and .def_108 .def_133))
(define-fun .def_135 () Bool (and .def_110 .def_134))
(define-fun .def_137 () Bool (and .def_135 .def_136))
(define-fun .def_139 () Bool (and .def_137 .def_138))
(define-fun .def_140 () Bool (and .def_112 .def_139))
(define-fun .def_142 () Bool (and .def_140 .def_141))
(define-fun .def_143 () Bool (and .def_54 .def_142))
(define-fun .def_144 () Bool (and .def_56 .def_143))
(define-fun .def_146 () Bool (and .def_144 .def_145))
(define-fun .def_384 () Bool (or .def_146 .def_383))
(define-fun .def_117 () Bool (= .def_26 |.x{889}|))
(define-fun .def_115 () Bool (= .def_18 |.x{885}|))
(define-fun .def_114 () Bool (= .def_22 |.x{887}|))
(define-fun .def_116 () Bool (and .def_114 .def_115))
(define-fun .def_118 () Bool (and .def_116 .def_117))
(define-fun .def_385 () Bool (and .def_118 .def_384))
(define-fun .def_91 () Bool (= |.x{889}| 0))
(define-fun .def_90 () Bool (= |.x{885}| 0))
(define-fun .def_92 () Bool (and .def_90 .def_91))
(define-fun .def_88 () (Array Int Int) (store .def_10 0 0))
(define-fun .def_89 () Bool (= |.x{87}| .def_88))
(define-fun .def_93 () Bool (and .def_89 .def_92))
(define-fun .def_94 () Bool (or .def_50 .def_93))
(define-fun .def_78 () Bool (<= |.x{880}| |.x{893}|))
(define-fun .def_79 () Bool (not .def_78))
(define-fun .def_72 () (Array Int Int) (store .def_22 |.x{893}| 400000))
(define-fun .def_73 () Bool (= |.x{887}| .def_72))
(define-fun .def_69 () Int (select |.x{87}| |.x{893}|))
(define-fun .def_70 () Bool (= .def_69 0))
(define-fun .def_74 () Bool (and .def_70 .def_73))
(define-fun .def_67 () Bool (= |.x{893}| 0))
(define-fun .def_68 () Bool (not .def_67))
(define-fun .def_75 () Bool (and .def_68 .def_74))
(define-fun .def_65 () (Array Int Int) (store |.x{87}| |.x{893}| 1))
(define-fun .def_66 () Bool (= |.x{881}| .def_65))
(define-fun .def_76 () Bool (and .def_66 .def_75))
(define-fun .def_62 () Bool (= |.x{897}| 0))
(define-fun .def_77 () Bool (and .def_62 .def_76))
(define-fun .def_80 () Bool (and .def_77 .def_79))
(define-fun .def_61 () Bool (= |.x{892}| 0))
(define-fun .def_81 () Bool (and .def_61 .def_80))
(define-fun .def_82 () Bool (or |.x{857}| .def_81))
(define-fun .def_84 () Bool (and .def_82 .def_83))
(define-fun .def_85 () Bool (and |.loc{9}| .def_84))
(define-fun .def_87 () Bool (and .def_85 .def_86))
(define-fun .def_95 () Bool (and .def_87 .def_94))
(define-fun .def_97 () Bool (and .def_95 .def_96))
(define-fun .def_99 () Bool (and .def_97 .def_98))
(define-fun .def_101 () Bool (and .def_99 .def_100))
(define-fun .def_103 () Bool (and .def_101 .def_102))
(define-fun .def_105 () Bool (and .def_103 .def_104))
(define-fun .def_107 () Bool (and .def_105 .def_106))
(define-fun .def_109 () Bool (and .def_107 .def_108))
(define-fun .def_111 () Bool (and .def_109 .def_110))
(define-fun .def_113 () Bool (and .def_111 .def_112))
(define-fun .def_386 () Bool (or .def_113 .def_385))
(define-fun .def_400 () Bool (! (and .def_386 .def_399) :trans true))
(define-fun .def_416 () Bool (and .def_58 .def_413))
(define-fun .def_417 () Bool (and .def_50 .def_416))
(define-fun .def_418 () Bool (! (not .def_417) :invar-property 0))
(assert true)
